sat
(:eliminated-applications 240
 :eliminated-vars         2032
 :max-memory              34.74
 :memory                  24.65
 :nlsat-conflicts         15756
 :nlsat-decisions         22625
 :nlsat-learned-added     13434
 :nlsat-learned-deleted   7595
 :nlsat-propagations      259094
 :nlsat-restarts          10
 :nlsat-stages            54853
 :num-allocs              228631077
 :rlimit-count            50878484
 :time                    172.26
 :total-time              171.97)
